(set-info :smt-lib-version 2.6)
(set-logic QF_S)
(set-info :source |
Generated by: Murphy Berzish, Mitja Kulczynski, Federico Mora, Florin Manea, Joel Day, Dirk Nowotka, Vijay Ganesh, Zhengyang Lu
Generated on: 2020-10-01
Description: Translated from a collection of real-world regex queries, AutomataArk, collected by Loris D’Antoni and Fang Wang: https://github.com/lorisdanto/automatark
Application: Evaluate solvers on real-world regex queries
Target solver: Z3str3RE, CVC4, OSTRICH, Z3seq, Z3str3, Z3-Trau
Publications: Berzish, M., Kulczynski, M., Mora, F., Manea, F., Day, J. D., Nowotka, D., & Ganesh, V. (2021, July). An SMT solver for regular expressions and linear arithmetic over string length. In CAV 2021.
|)
(set-info :license "https://creativecommons.org/licenses/by/4.0/")
(set-info :category "industrial")
(set-info :status unsat)

(declare-const X String)
(assert (str.in_re X (str.to_re "dll?[DRIVEHost:\u{b0}\u{ae}\u{b6}\u{f9}\u{cd}\u{f8}\u{b5}\u{c1}\u{a}")))
(assert (not (str.in_re X (re.++ (str.to_re "BV_SessionID=@@@@0106700396") re.allchar (str.to_re "1206001747@@@@&BV_EngineID=ccckadedjddehggcefecehidfhfdflg") re.allchar (str.to_re "0\u{a}")))))
(assert (not (str.in_re X (re.++ (str.to_re "www.freescratchandwin.com") (re.+ (re.union (re.range "0" "9") (re.range "A" "Z") (re.range "a" "z") (str.to_re "_"))) (str.to_re "Port") (re.* re.allchar) (str.to_re "User-Agent:Toolbarkit\u{a}")))))
(assert (not (str.in_re X (re.++ (re.+ (re.union (re.range "a" "z") (re.range "A" "Z") (re.range "0" "9") (str.to_re "_") (str.to_re ".") (str.to_re "-"))) (str.to_re "@") (re.+ (re.union (re.range "a" "z") (re.range "A" "Z") (re.range "0" "9") (str.to_re "-"))) re.allchar (re.+ (re.union (re.range "a" "z") (re.range "A" "Z") (re.range "0" "9") (str.to_re "-") (str.to_re "."))) (str.to_re "\u{a}")))))
(assert (str.in_re X (re.union (re.++ (re.range "A" "Z") (str.to_re ":\u{5c}") (re.+ (re.union (str.to_re "/") (str.to_re ":") (str.to_re "*") (str.to_re "?") (str.to_re "<") (str.to_re ">") (str.to_re "|"))) (str.to_re ".") ((_ re.loop 2 6) (re.union (re.range "0" "9") (re.range "A" "Z") (re.range "a" "z") (str.to_re "_")))) (re.++ (str.to_re "\u{a}") ((_ re.loop 2 2) (str.to_re "\u{5c}")) (re.+ (re.union (str.to_re "/") (str.to_re ":") (str.to_re "*") (str.to_re "?") (str.to_re "<") (str.to_re ">") (str.to_re "|"))) (str.to_re ".") ((_ re.loop 2 6) (re.union (re.range "0" "9") (re.range "A" "Z") (re.range "a" "z") (str.to_re "_")))))))
(check-sat)

(exit)
